
Gurobi 8.1.1 (win64, Python) logging started 12/23/19 02:15:52

Academic license - for non-commercial use only

Gurobi 8.1.1 (win64, Python) logging started 12/23/19 02:20:56

Academic license - for non-commercial use only
<<<<<<< HEAD

Gurobi 8.1.1 (win64, Python) logging started 12/23/19 17:02:46

Academic license - for non-commercial use only

Gurobi 8.1.1 (win64, Python) logging started 12/23/19 19:54:27

Academic license - for non-commercial use only

Gurobi 8.1.1 (win64, Python) logging started 12/23/19 20:04:23

Academic license - for non-commercial use only

Gurobi 8.1.1 (win64, Python) logging started 12/24/19 12:58:16

Academic license - for non-commercial use only

Gurobi 8.1.1 (win64, Python) logging started 12/24/19 12:59:24

Academic license - for non-commercial use only

Gurobi 8.1.1 (win64, Python) logging started 12/24/19 13:05:44

Academic license - for non-commercial use only

Gurobi 8.1.1 (win64, Python) logging started 12/24/19 13:16:56

Academic license - for non-commercial use only

Gurobi 8.1.1 (win64, Python) logging started 12/24/19 13:17:40

Academic license - for non-commercial use only

Gurobi 8.1.1 (win64, Python) logging started 12/24/19 13:18:38

Academic license - for non-commercial use only

Gurobi 8.1.1 (win64, Python) logging started 12/24/19 13:19:34

Academic license - for non-commercial use only

Gurobi 8.1.1 (win64, Python) logging started 12/24/19 18:00:40

Academic license - for non-commercial use only

Gurobi 8.1.1 (win64, Python) logging started 12/25/19 16:27:22

Academic license - for non-commercial use only

Gurobi 8.1.1 (win64, Python) logging started 12/25/19 17:06:51

Academic license - for non-commercial use only

Gurobi 8.1.1 (win64, Python) logging started 12/25/19 17:13:41

Academic license - for non-commercial use only

Gurobi 8.1.1 (win64, Python) logging started 12/25/19 17:17:57

Academic license - for non-commercial use only
<<<<<<< HEAD

Gurobi 8.1.1 (win64, Python) logging started 12/25/19 18:52:00

Academic license - for non-commercial use only
=======
>>>>>>> parent of 6baaf7e... test

Gurobi 8.1.1 (win64, Python) logging started 12/25/19 18:57:15

Academic license - for non-commercial use only
=======
>>>>>>> parent of 1f3b6e0... test failed

Gurobi 8.1.1 (win64, Python) logging started 12/25/19 18:58:40

Academic license - for non-commercial use only

Gurobi 8.1.1 (win64, Python) logging started 12/25/19 21:28:46

Academic license - for non-commercial use only

Gurobi 8.1.1 (win64, Python) logging started 12/25/19 21:49:03

Academic license - for non-commercial use only

Gurobi 8.1.1 (win64, Python) logging started 12/26/19 11:46:09

Academic license - for non-commercial use only

Gurobi 8.1.1 (win64, Python) logging started 12/26/19 12:06:34

Academic license - for non-commercial use only

Gurobi 8.1.1 (win64, Python) logging started 12/26/19 12:30:30

Academic license - for non-commercial use only

Gurobi 8.1.1 (win64, Python) logging started 12/26/19 12:34:16

Academic license - for non-commercial use only

Gurobi 8.1.1 (win64, Python) logging started 12/26/19 12:40:26

Academic license - for non-commercial use only

Gurobi 8.1.1 (win64, Python) logging started 12/26/19 12:45:28

Academic license - for non-commercial use only

Gurobi 8.1.1 (win64, Python) logging started 12/26/19 12:49:32

Academic license - for non-commercial use only

Gurobi 8.1.1 (win64, Python) logging started 12/26/19 17:51:31

Academic license - for non-commercial use only

Gurobi 8.1.1 (win64, Python) logging started 12/26/19 17:54:52

Academic license - for non-commercial use only

Gurobi 8.1.1 (win64, Python) logging started 12/26/19 17:57:53

Academic license - for non-commercial use only

Gurobi 8.1.1 (win64, Python) logging started 12/26/19 18:02:04

Academic license - for non-commercial use only

Gurobi 8.1.1 (win64, Python) logging started 12/26/19 18:06:31

Academic license - for non-commercial use only

Gurobi 8.1.1 (win64, Python) logging started 12/26/19 18:08:08

Academic license - for non-commercial use only

Gurobi 8.1.1 (win64, Python) logging started 12/26/19 18:17:40

Academic license - for non-commercial use only

Gurobi 8.1.1 (win64, Python) logging started 12/26/19 18:22:57

Academic license - for non-commercial use only

Gurobi 8.1.1 (win64, Python) logging started 12/26/19 18:31:36

Academic license - for non-commercial use only

Gurobi 8.1.1 (win64, Python) logging started 12/26/19 18:34:05

Academic license - for non-commercial use only

Gurobi 8.1.1 (win64, Python) logging started 12/26/19 19:13:44

Academic license - for non-commercial use only

Gurobi 8.1.1 (win64, Python) logging started 12/26/19 19:27:47

Academic license - for non-commercial use only

Gurobi 8.1.1 (win64, Python) logging started 12/30/19 15:51:37

Academic license - for non-commercial use only

Gurobi 8.1.1 (win64, Python) logging started 12/30/19 16:23:01

Academic license - for non-commercial use only

Gurobi 8.1.1 (win64, Python) logging started 12/30/19 16:34:26

Academic license - for non-commercial use only

Gurobi 8.1.1 (win64, Python) logging started 12/31/19 13:19:46

Academic license - for non-commercial use only

Gurobi 8.1.1 (win64, Python) logging started 12/31/19 14:43:09

Academic license - for non-commercial use only


Gurobi 8.1.1 (win64, Python) logging started 12/31/19 17:30:38

Academic license - for non-commercial use only

Gurobi 8.1.1 (win64, Python) logging started 12/31/19 19:24:26

Academic license - for non-commercial use only

Gurobi 8.1.1 (mac64, Python) logging started Wed Jan  1 21:52:14 2020

Academic license - for non-commercial use only

Gurobi 8.1.1 (win64, Python) logging started 01/03/20 09:21:07

Academic license - for non-commercial use only

Gurobi 8.1.1 (win64, Python) logging started 01/03/20 09:54:40

Academic license - for non-commercial use only

Gurobi 8.1.1 (win64, Python) logging started 01/03/20 09:58:36

Academic license - for non-commercial use only

Gurobi 8.1.1 (win64, Python) logging started 01/03/20 10:00:16

Academic license - for non-commercial use only

Gurobi 8.1.1 (win64, Python) logging started 01/03/20 10:01:09

Academic license - for non-commercial use only

Gurobi 8.1.1 (win64, Python) logging started 01/03/20 13:56:19

Academic license - for non-commercial use only

Gurobi 8.1.1 (win64, Python) logging started 01/03/20 13:57:59

Academic license - for non-commercial use only

Gurobi 8.1.1 (win64, Python) logging started 01/03/20 14:00:11

Academic license - for non-commercial use only

Gurobi 8.1.1 (win64, Python) logging started 01/03/20 14:01:31

Academic license - for non-commercial use only

Gurobi 8.1.1 (win64, Python) logging started 01/03/20 14:06:36

Academic license - for non-commercial use only

Gurobi 8.1.1 (win64, Python) logging started 01/03/20 14:08:05

Academic license - for non-commercial use only

Gurobi 8.1.1 (win64, Python) logging started 01/03/20 14:08:47

Academic license - for non-commercial use only

Gurobi 8.1.1 (win64, Python) logging started 01/03/20 16:42:42

Academic license - for non-commercial use only

Gurobi 8.1.1 (win64, Python) logging started 01/03/20 16:43:16

Academic license - for non-commercial use only

Gurobi 8.1.1 (win64, Python) logging started 01/03/20 20:44:49

Academic license - for non-commercial use only

Gurobi 8.1.1 (win64, Python) logging started 01/05/20 19:43:34

Academic license - for non-commercial use only

Gurobi 8.1.1 (win64, Python) logging started 01/05/20 20:04:15

Academic license - for non-commercial use only

Gurobi 8.1.1 (win64, Python) logging started 01/05/20 20:33:02

Academic license - for non-commercial use only

Gurobi 8.1.1 (win64, Python) logging started 01/05/20 20:58:19

Academic license - for non-commercial use only

Gurobi 8.1.1 (win64, Python) logging started 01/06/20 03:59:18

Academic license - for non-commercial use only

Gurobi 8.1.1 (win64, Python) logging started 01/06/20 03:59:53

Academic license - for non-commercial use only

Gurobi 8.1.1 (win64, Python) logging started 01/06/20 04:00:28

Academic license - for non-commercial use only

Gurobi 8.1.1 (win64, Python) logging started 01/06/20 04:05:10

Academic license - for non-commercial use only

Gurobi 8.1.1 (win64, Python) logging started 01/06/20 04:17:43

Academic license - for non-commercial use only

Gurobi 8.1.1 (win64, Python) logging started 01/06/20 04:52:01

Academic license - for non-commercial use only

Gurobi 8.1.1 (win64, Python) logging started 01/06/20 04:52:14

Academic license - for non-commercial use only

Gurobi 8.1.1 (win64, Python) logging started 01/06/20 04:52:59

Academic license - for non-commercial use only

Gurobi 8.1.1 (win64, Python) logging started 01/06/20 04:53:39

Academic license - for non-commercial use only

Gurobi 8.1.1 (win64, Python) logging started 01/06/20 04:57:09

Academic license - for non-commercial use only

Gurobi 8.1.1 (win64, Python) logging started 01/06/20 04:57:41

Academic license - for non-commercial use only

Gurobi 8.1.1 (win64, Python) logging started 01/06/20 05:00:29

Academic license - for non-commercial use only

Gurobi 8.1.1 (win64, Python) logging started 01/06/20 05:00:37

Academic license - for non-commercial use only

Gurobi 8.1.1 (win64, Python) logging started 01/06/20 05:01:58

Academic license - for non-commercial use only

Gurobi 8.1.1 (win64, Python) logging started 01/06/20 05:04:54

Academic license - for non-commercial use only

Gurobi 8.1.1 (win64, Python) logging started 01/06/20 16:53:02

Academic license - for non-commercial use only

Gurobi 8.1.1 (win64, Python) logging started 01/06/20 17:01:57

Academic license - for non-commercial use only

Gurobi 8.1.1 (win64, Python) logging started 01/07/20 11:43:10

Academic license - for non-commercial use only

Gurobi 8.1.1 (win64, Python) logging started 01/07/20 11:43:32

Academic license - for non-commercial use only

Gurobi 8.1.1 (win64, Python) logging started 01/07/20 11:46:13

Academic license - for non-commercial use only

Gurobi 8.1.1 (win64, Python) logging started 01/07/20 11:46:43

Academic license - for non-commercial use only

Gurobi 8.1.1 (win64, Python) logging started 01/07/20 11:52:39

Academic license - for non-commercial use only

Gurobi 8.1.1 (win64, Python) logging started 01/07/20 11:56:11

Academic license - for non-commercial use only

Gurobi 8.1.1 (win64, Python) logging started 01/07/20 11:58:05

Academic license - for non-commercial use only

Gurobi 8.1.1 (win64, Python) logging started 01/07/20 12:00:56

Academic license - for non-commercial use only

Gurobi 8.1.1 (win64, Python) logging started 01/07/20 12:04:15

Academic license - for non-commercial use only

Gurobi 8.1.1 (win64, Python) logging started 01/07/20 12:09:19

Academic license - for non-commercial use only

Gurobi 8.1.1 (win64, Python) logging started 01/07/20 12:12:26

Academic license - for non-commercial use only

Gurobi 8.1.1 (win64, Python) logging started 01/07/20 12:16:35

Academic license - for non-commercial use only

Gurobi 8.1.1 (win64, Python) logging started 01/07/20 12:20:05

Academic license - for non-commercial use only

Gurobi 8.1.1 (win64, Python) logging started 01/07/20 12:21:48

Academic license - for non-commercial use only

Gurobi 8.1.1 (win64, Python) logging started 01/07/20 12:28:45

Academic license - for non-commercial use only

Gurobi 8.1.1 (win64, Python) logging started 01/07/20 13:41:18

Academic license - for non-commercial use only

Gurobi 8.1.1 (win64, Python) logging started 01/07/20 17:47:54

Academic license - for non-commercial use only

Gurobi 8.1.1 (win64, Python) logging started 01/08/20 02:38:42

Academic license - for non-commercial use only
Changed value of parameter TimeLimit to 300.0
   Prev: 1e+100  Min: 0.0  Max: 1e+100  Default: 1e+100
Optimize a model with 3787 rows, 14253 columns and 314260 nonzeros
Variable types: 483 continuous, 13770 integer (13770 binary)
Coefficient statistics:
  Matrix range     [3e-01, 5e+00]
  Objective range  [3e+01, 1e+02]
  Bounds range     [1e+00, 1e+00]
  RHS range        [1e+00, 3e+01]
Found heuristic solution: objective 687120.00000
Presolve removed 1228 rows and 3384 columns
Presolve time: 0.47s
Presolved: 2559 rows, 10869 columns, 118034 nonzeros
Variable types: 357 continuous, 10512 integer (10385 binary)

Root relaxation: objective 1.301059e+04, 14958 iterations, 1.42 seconds

    Nodes    |    Current Node    |     Objective Bounds      |     Work
 Expl Unexpl |  Obj  Depth IntInf | Incumbent    BestBd   Gap | It/Node Time

     0     0 13010.5882    0  490 687120.000 13010.5882  98.1%     -    4s
H    0     0                    17740.000000 13010.5882  26.7%     -    4s
H    0     0                    16535.000000 13010.5882  21.3%     -    4s
H    0     0                    16370.000000 13010.5882  20.5%     -    4s
H    0     0                    16160.000000 13010.5882  19.5%     -    4s
     0     0 13027.8382    0 1287 16160.0000 13027.8382  19.4%     -    5s
H    0     0                    15799.999980 13027.8382  17.5%     -    5s
     0     0 13064.7815    0 1137 15800.0000 13064.7815  17.3%     -    6s
     0     0 13070.8529    0 1074 15800.0000 13070.8529  17.3%     -    6s
     0     0 13070.8529    0 1093 15800.0000 13070.8529  17.3%     -    7s
H    0     0                    15770.000000 13070.8529  17.1%     -    9s
H    0     0                    15740.000000 13070.8529  17.0%     -    9s
H    0     0                    15680.000000 13070.8529  16.6%     -    9s
     0     0 13145.3263    0 1473 15680.0000 13145.3263  16.2%     -    9s
H    0     0                    15590.000000 13145.3263  15.7%     -   11s
H    0     0                    15530.000000 13145.3263  15.4%     -   11s
H    0     0                    15470.000000 13145.3263  15.0%     -   11s
H    0     0                    15410.000000 13145.3263  14.7%     -   11s
H    0     0                    15380.000000 13145.3263  14.5%     -   11s
     0     0 13251.8269    0 1436 15380.0000 13251.8269  13.8%     -   11s
H    0     0                    15350.000000 13251.8269  13.7%     -   12s
H    0     0                    15335.000000 13251.8269  13.6%     -   12s
     0     0 13259.0882    0 1377 15335.0000 13259.0882  13.5%     -   12s
H    0     0                    15260.000000 13259.0882  13.1%     -   13s
H    0     0                    15245.000000 13259.0882  13.0%     -   13s
     0     0 13259.0882    0 1323 15245.0000 13259.0882  13.0%     -   13s
H    0     0                    15125.000000 13259.0882  12.3%     -   13s
H    0     0                    15095.000000 13259.0882  12.2%     -   16s
H    0     0                    15065.000000 13259.0882  12.0%     -   16s
H    0     0                    15035.000000 13259.0882  11.8%     -   16s
H    0     0                    14975.000000 13259.0882  11.5%     -   16s
H    0     0                    14945.000000 13259.0882  11.3%     -   16s
H    0     0                    14930.000000 13259.0882  11.2%     -   16s
H    0     0                    14870.000000 13259.0882  10.8%     -   16s
     0     0 13378.5882    0 1504 14870.0000 13378.5882  10.0%     -   16s
     0     0 13393.5882    0 1446 14870.0000 13393.5882  9.93%     -   19s
H    0     0                    14840.000000 13393.5882  9.75%     -   22s
     0     0 13393.5882    0 1444 14840.0000 13393.5882  9.75%     -   23s
H    0     0                    14780.000000 13393.5882  9.38%     -   27s
     0     0 13393.5882    0 1678 14780.0000 13393.5882  9.38%     -   28s
     0     0 13409.3235    0 1628 14780.0000 13409.3235  9.27%     -   34s
     0     0 13409.3235    0 1582 14780.0000 13409.3235  9.27%     -   38s
H    0     0                    14750.000000 13409.3235  9.09%     -   44s
     0     0 13412.3235    0 1770 14750.0000 13412.3235  9.07%     -   44s
H    0     0                    14720.000000 13412.3235  8.88%     -   45s
     0     0 13434.6799    0 1720 14720.0000 13434.6799  8.73%     -   50s
     0     0 13474.0773    0 1747 14720.0000 13474.0773  8.46%     -   54s
     0     0 13474.8876    0 1658 14720.0000 13474.8876  8.46%     -   57s
     0     0 13474.9798    0 1639 14720.0000 13474.9798  8.46%     -   60s
     0     0 13476.6360    0 1739 14720.0000 13476.6360  8.45%     -   68s
     0     0 13589.3235    0 1639 14720.0000 13589.3235  7.68%     -   72s
     0     0 13589.3235    0 1641 14720.0000 13589.3235  7.68%     -   76s
     0     0 13602.8235    0 1669 14720.0000 13602.8235  7.59%     -   81s
H    0     0                    14690.000000 13602.8235  7.40%     -   82s
     0     0 13628.3235    0 1697 14690.0000 13628.3235  7.23%     -   86s
     0     0 13630.8235    0 1594 14690.0000 13630.8235  7.21%     -   89s
     0     0 13630.8235    0 1605 14690.0000 13630.8235  7.21%     -   91s
     0     0 13678.3235    0 1736 14690.0000 13678.3235  6.89%     -   95s
     0     0 13700.8235    0 1633 14690.0000 13700.8235  6.73%     -  100s
     0     0 13700.8235    0 1675 14690.0000 13700.8235  6.73%     -  103s
     0     0 13702.4902    0 1690 14690.0000 13702.4902  6.72%     -  107s
     0     0 13705.8235    0 1586 14690.0000 13705.8235  6.70%     -  112s
     0     0 13708.8235    0 1575 14690.0000 13708.8235  6.68%     -  114s
     0     0 13715.8235    0 1519 14690.0000 13715.8235  6.63%     -  116s
     0     0 13715.8235    0 1508 14690.0000 13715.8235  6.63%     -  118s
     0     0 13730.8235    0 1542 14690.0000 13730.8235  6.53%     -  121s
     0     0 13760.8235    0 1541 14690.0000 13760.8235  6.33%     -  124s
     0     0 13760.8235    0 1512 14690.0000 13760.8235  6.33%     -  125s
     0     0 13760.8235    0 1585 14690.0000 13760.8235  6.33%     -  128s
     0     0 13760.8235    0 1565 14690.0000 13760.8235  6.33%     -  133s
     0     0 13760.8235    0 1478 14690.0000 13760.8235  6.33%     -  136s
     0     0 13760.8235    0  865 14690.0000 13760.8235  6.33%     -  155s
     0     2 13760.8235    0  865 14690.0000 13760.8235  6.33%     -  196s
     1     2     cutoff    1      14690.0000 13763.5000  6.31% 28246  209s
     3     4 13764.5000    2 1470 14690.0000 13764.5000  6.30% 13098  227s
     5     8 13764.5000    3 1471 14690.0000 13764.5000  6.30%  9644  233s
     9    12 13764.5000    4 1512 14690.0000 13764.5000  6.30%  7697  245s
    13    16 13764.5000    4 1469 14690.0000 13764.5000  6.30%  8107  252s
    17    20 13772.0000    5 1349 14690.0000 13764.5000  6.30%  7280  255s
    21    23 13772.0000    5 1376 14690.0000 13764.5000  6.30%  6188  260s
    26    25 13772.0000    7 1264 14690.0000 13764.5000  6.30%  5418  267s
    30    33 13772.0000    7 1224 14690.0000 13764.5000  6.30%  5497  271s
    34    29 13772.0000    8 1298 14690.0000 13764.5000  6.30%  5084  276s
    39    39 13772.0000    8 1263 14690.0000 13764.5000  6.30%  4772  282s
    46    43 13772.0000   10 1242 14690.0000 13764.5000  6.30%  4402  292s
    59    52 13772.0000   13 1200 14690.0000 13764.5000  6.30%  3923  300s

Cutting planes:
  Gomory: 8
  Cover: 539
  Clique: 1348
  MIR: 64
  StrongCG: 1
  GUB cover: 98
  Zero half: 88

Explored 63 nodes (422389 simplex iterations) in 300.02 seconds
Thread count was 8 (of 8 available processors)

Solution count 10: 14690 14720 14750 ... 15035

Time limit reached
Best objective 1.469000000000e+04, best bound 1.376450000000e+04, gap 6.3002%
